(set-option :print-success false)
(set-logic QF_UF)
(declare-sort x22 0)
(declare-sort x45 0)
(declare-fun x87 () x45)
(declare-fun x1 () x45)
(declare-fun x60 (x45 x45) x45)
(declare-fun x52 () x45)
(declare-fun x50 () x45)
(declare-fun x49 () x45)
(declare-fun x153 (x45 x45) x45)
(assert (and (or (or (or (= (x60 x1 (x60 x1 x52)) x52) (or (= (x60 x1 (x60 x1 x49)) x49) (= (x60 x1 (x60 x1 x50)) x50))) (= (x60 x1 (x60 x1 x87)) x87)) (= x1 (x60 x1 (x60 x1 x1)))) (and (or (or (= (x60 x87 (x60 x87 x87)) x87) (or (= (x60 x87 (x60 x87 x52)) x52) (or (= x50 (x60 x87 (x60 x87 x50))) (= x49 (x60 x87 (x60 x87 x49)))))) (= x1 (x60 x87 (x60 x87 x1)))) (and (and (or (= x1 (x60 x50 (x60 x50 x1))) (or (= (x60 x50 (x60 x50 x87)) x87) (or (= x52 (x60 x50 (x60 x50 x52))) (or (= x49 (x60 x50 (x60 x50 x49))) (= (x60 x50 (x60 x50 x50)) x50))))) (or (or (or (or (= (x60 x49 (x60 x49 x50)) x50) (= (x60 x49 (x60 x49 x49)) x49)) (= x52 (x60 x49 (x60 x49 x52)))) (= x87 (x60 x49 (x60 x49 x87)))) (= (x60 x49 (x60 x49 x1)) x1))) (or (= (x60 x52 (x60 x52 x1)) x1) (or (or (= (x60 x52 (x60 x52 x52)) x52) (or (= x49 (x60 x52 (x60 x52 x49))) (= x50 (x60 x52 (x60 x52 x50))))) (= (x60 x52 (x60 x52 x87)) x87)))))))
(assert (let ((x127 (x60 x49 x1)) (x71 (x60 x1 x49)) (x111 (x60 x1 x87)) (x24 (x60 x1 x1)) (x132 (x60 x50 x87)) (x55 (x60 x50 x1)) (x135 (x60 x52 x52)) (x27 (x60 x52 x50)) (x119 (x60 x50 x49)) (x53 (x60 x49 x52)) (x46 (x60 x50 x50)) (x80 (x60 x49 x87)) (x95 (x60 x50 x52)) (x74 (x60 x87 x50)) (x11 (x60 x87 x87)) (x10 (x60 x87 x1)) (x116 (x60 x87 x52)) (x155 (x60 x1 x52)) (x157 (x60 x52 x1)) (x61 (x60 x49 x50)) (x118 (x60 x1 x50)) (x78 (x60 x87 x49)) (x107 (x60 x49 x49)) (x2 (x60 x52 x87)) (x15 (x60 x52 x49))) (let ((x104 (= x87 x107)) (x89 (= x1 x2)) (x152 (= x87 x135)) (x100 (= x1 x119)) (x133 (= x119 x50)) (x39 (= x118 x1)) (x76 (= x127 x52)) (x137 (= x50 x53)) (x88 (= x27 x52)) (x57 (= x78 x50)) (x7 (= x127 x87)) (x19 (= x49 x24)) (x91 (= x50 x10)) (x141 (= x157 x52)) (x14 (= x74 x49)) (x48 (= x87 x53)) (x25 (= x87 x2)) (x28 (= x87 x155)) (x139 (= x1 x11)) (x23 (= x52 x10)) (x38 (= x49 x11)) (x151 (= x49 x135)) (x33 (= x1 x80)) (x84 (= x87 x157)) (x17 (= x53 x49)) (x59 (= x2 x49)) (x12 (= x49 x111)) (x32 (= x49 x127)) (x20 (= x80 x52)) (x36 (= x107 x49)) (x40 (= x132 x50)) (x66 (= x157 x50)) (x26 (= x52 x107)) (x99 (= x80 x87)) (x47 (= x78 x87)) (x124 (= x55 x87)) (x136 (= x15 x1)) (x93 (= x50 x116)) (x154 (= x95 x50)) (x6 (= x49 x155)) (x5 (= x2 x50)) (x16 (= x10 x49)) (x148 (= x50 x46)) (x86 (= x71 x49)) (x18 (= x10 x1)) (x96 (= x55 x49)) (x35 (= x50 x24)) (x63 (= x50 x27)) (x30 (= x87 x15)) (x117 (= x71 x1)) (x29 (= x53 x1)) (x128 (= x49 x157)) (x81 (= x52 x95)) (x158 (= x135 x1)) (x122 (= x52 x116)) (x68 (= x11 x52)) (x9 (= x87 x11)) (x123 (= x61 x50)) (x44 (= x87 x132)) (x41 (= x2 x52)) (x159 (= x107 x50)) (x31 (= x155 x50)) (x146 (= x53 x52)) (x67 (= x118 x49)) (x62 (= x15 x50)) (x92 (= x119 x52)) (x98 (= x50 x11)) (x121 (= x78 x52)) (x90 (= x46 x52)) (x42 (= x127 x1)) (x149 (= x95 x1)) (x140 (= x87 x24)) (x113 (= x87 x46)) (x13 (= x132 x52)) (x142 (= x50 x118)) (x150 (= x74 x87)) (x101 (= x52 x71)) (x72 (= x111 x50)) (x85 (= x49 x119)) (x58 (= x50 x80)) (x134 (= x78 x49)) (x138 (= x87 x116)) (x43 (= x52 x61)) (x83 (= x52 x74)) (x110 (= x71 x87)) (x112 (= x116 x1)) (x129 (= x1 x46)) (x51 (= x50 x71)) (x106 (= x1 x74)) (x64 (= x111 x52)) (x73 (= x1 x157)) (x56 (= x87 x118)) (x102 (= x49 x15)) (x8 (= x52 x55)) (x37 (= x27 x49)) (x94 (= x135 x50)) (x3 (= x55 x1)) (x65 (= x95 x49)) (x109 (= x27 x87)) (x105 (= x49 x46)) (x4 (= x127 x50)) (x103 (= x95 x87)) (x147 (= x1 x61)) (x75 (= x50 x55)) (x131 (= x135 x52)) (x130 (= x1 x78)) (x108 (= x49 x116)) (x70 (= x132 x49)) (x54 (= x111 x87)) (x145 (= x1 x24)) (x82 (= x1 x111)) (x79 (= x24 x52)) (x143 (= x87 x61)) (x77 (= x52 x118)) (x34 (= x52 x155)) (x156 (= x87 x10)) (x126 (= x49 x61)) (x21 (= x15 x52)) (x125 (= x107 x1)) (x97 (= x1 x155)) (x69 (= x27 x1)) (x120 (= x50 x74)) (x115 (= x132 x1)) (x114 (= x80 x49)) (x144 (= x119 x87))) (and (and (and (and (and (and (and (or (or (or x109 (or x143 x113)) x150) x56) (or (or (or x103 (or x144 x113)) x44) x124)) (and (and (or (or x13 (or (or x92 x90) x81)) x8) (or (or x83 (or (or x90 x43) x88)) x77)) (and (and (or x96 (or x70 (or (or x105 x85) x65))) (or (or (or (or x105 x126) x37) x14) x67)) (and (or (or x120 (or x63 (or x123 x148))) x142) (or (or x40 (or (or x133 x148) x154)) x75))))) (and (or (or (or x149 (or x129 x100)) x115) x3) (or (or x106 (or (or x147 x129) x69)) x39))) (and (and (or (or x33 (or x29 (or x125 x147))) x42) (or (or (or (or x100 x125) x136) x130) x117)) (and (and (and (or (or x121 (or (or x26 x92) x21)) x101) (or (or (or (or x26 x43) x146) x20) x76)) (and (and (or (or (or x62 (or x133 x159)) x57) x51) (or (or (or x137 (or x123 x159)) x58) x4)) (and (or x32 (or x114 (or x17 (or x36 x126)))) (or x86 (or (or x102 (or x36 x85)) x134))))) (and (or x7 (or x99 (or (or x143 x104) x48))) (or x110 (or (or (or x104 x144) x30) x47)))))) (and (and (or (or (or x158 (or x29 x149)) x112) x97) (or (or x89 (or (or x136 x69) x158)) x73)) (and (and (and (and (or (or x108 (or (or x65 x17) x151)) x6) (or (or (or x151 (or x37 x102)) x59) x128)) (and (or x31 (or (or (or x154 x137) x94) x93)) (or (or (or (or x62 x63) x94) x5) x66))) (and (or x141 (or (or (or x21 x88) x131) x41)) (or (or x122 (or (or x81 x146) x131)) x34))) (and (or (or (or (or x103 x48) x152) x138) x28) (or (or (or x152 (or x109 x30)) x25) x84))))) (and (and (or (or (or x112 (or x130 x106)) x139) x18) (or x82 (or x139 (or (or x115 x33) x89)))) (and (and (and (or x23 (or x68 (or x122 (or x121 x83)))) (or (or (or x41 (or x13 x20)) x68) x64)) (and (and (or x16 (or x38 (or (or x14 x134) x108))) (or (or x38 (or x59 (or x114 x70))) x12)) (and (or x91 (or x98 (or x93 (or x120 x57)))) (or x72 (or (or x5 (or x40 x58)) x98))))) (and (or (or (or x138 (or x47 x150)) x9) x156) (or x54 (or x9 (or x25 (or x44 x99)))))))) (and (and (or x145 (or (or (or x42 x3) x73) x18)) (or x145 (or x82 (or (or x39 x117) x97)))) (and (and (or (or (or (or x56 x110) x28) x54) x140) (or x140 (or x156 (or (or x124 x7) x84)))) (and (and (or x79 (or (or (or x76 x8) x141) x23)) (or (or (or (or x101 x77) x34) x64) x79)) (and (and (or x35 (or (or (or x75 x4) x66) x91)) (or x35 (or (or x31 (or x51 x142)) x72))) (and (or (or (or (or x32 x96) x128) x16) x19) (or (or x12 (or x6 (or x67 x86))) x19))))))))))
(assert (and (or (or (or (or (= (x60 (x60 x1 x49) x1) x49) (= x50 (x60 (x60 x1 x50) x1))) (= (x60 (x60 x1 x52) x1) x52)) (= x87 (x60 (x60 x1 x87) x1))) (= (x60 (x60 x1 x1) x1) x1)) (and (or (= (x60 (x60 x87 x1) x87) x1) (or (or (= (x60 (x60 x87 x52) x87) x52) (or (= x49 (x60 (x60 x87 x49) x87)) (= x50 (x60 (x60 x87 x50) x87)))) (= x87 (x60 (x60 x87 x87) x87)))) (and (and (or (= x1 (x60 (x60 x49 x1) x49)) (or (= x87 (x60 (x60 x49 x87) x49)) (or (= x52 (x60 (x60 x49 x52) x49)) (or (= x50 (x60 (x60 x49 x50) x49)) (= x49 (x60 (x60 x49 x49) x49)))))) (or (or (= (x60 (x60 x50 x87) x50) x87) (or (= x52 (x60 (x60 x50 x52) x50)) (or (= x49 (x60 (x60 x50 x49) x50)) (= (x60 (x60 x50 x50) x50) x50)))) (= (x60 (x60 x50 x1) x50) x1))) (or (or (or (= x52 (x60 (x60 x52 x52) x52)) (or (= (x60 (x60 x52 x49) x52) x49) (= (x60 (x60 x52 x50) x52) x50))) (= (x60 (x60 x52 x87) x52) x87)) (= (x60 (x60 x52 x1) x52) x1))))))
(assert (or (and (= x1 (x60 (x60 x1 x1) x1)) (and (= (x60 (x60 x87 x1) x1) x87) (and (= (x60 (x60 x52 x1) x1) x52) (and (= (x60 (x60 x50 x1) x1) x50) (= x49 (x60 (x60 x49 x1) x1)))))) (or (and (= x1 (x60 (x60 x1 x87) x87)) (and (= (x60 (x60 x87 x87) x87) x87) (and (and (= x49 (x60 (x60 x49 x87) x87)) (= x50 (x60 (x60 x50 x87) x87))) (= (x60 (x60 x52 x87) x87) x52)))) (or (and (= (x60 (x60 x1 x52) x52) x1) (and (and (= (x60 (x60 x52 x52) x52) x52) (and (= (x60 (x60 x49 x52) x52) x49) (= x50 (x60 (x60 x50 x52) x52)))) (= (x60 (x60 x87 x52) x52) x87))) (or (and (and (and (and (= (x60 (x60 x50 x50) x50) x50) (= (x60 (x60 x49 x50) x50) x49)) (= x52 (x60 (x60 x52 x50) x50))) (= (x60 (x60 x87 x50) x50) x87)) (= x1 (x60 (x60 x1 x50) x50))) (and (and (= x87 (x60 (x60 x87 x49) x49)) (and (and (= (x60 (x60 x49 x49) x49) x49) (= (x60 (x60 x50 x49) x49) x50)) (= (x60 (x60 x52 x49) x49) x52))) (= (x60 (x60 x1 x49) x49) x1)))))))
(assert (let ((x90 (x60 x52 x49)) (x126 (x60 x87 x52)) (x61 (x60 x49 x52)) (x159 (x60 x87 x49)) (x53 (x60 x87 x1)) (x132 (x60 x50 x1)) (x74 (x60 x49 x1)) (x113 (x60 x52 x52)) (x80 (x60 x1 x50)) (x118 (x60 x52 x50)) (x95 (x60 x50 x87)) (x129 (x60 x52 x87)) (x107 (x60 x87 x87)) (x127 (x60 x1 x49)) (x133 (x60 x87 x50)) (x36 (x60 x1 x87)) (x123 (x60 x52 x1)) (x148 (x60 x50 x50)) (x55 (x60 x49 x50)) (x27 (x60 x49 x87)) (x85 (x60 x1 x52)) (x119 (x60 x50 x52)) (x105 (x60 x49 x49)) (x46 (x60 x50 x49)) (x15 (x60 x1 x1))) (and (and (and (and (and (and (and (and (or (or (or (= x148 x52) (or (= x148 x49) (= x148 x50))) (= x87 x148)) (= x148 x1)) (or (= x46 x1) (or (= x87 x46) (or (= x46 x52) (or (= x46 x50) (= x49 x46)))))) (or (or (or (= x119 x52) (or (= x119 x49) (= x50 x119))) (= x87 x119)) (= x1 x119))) (or (or (or (= x52 x95) (or (= x95 x50) (= x95 x49))) (= x95 x87)) (= x95 x1))) (or (= x132 x1) (or (or (= x52 x132) (or (= x49 x132) (= x50 x132))) (= x132 x87)))) (and (or (= x74 x1) (or (= x87 x74) (or (or (= x74 x49) (= x74 x50)) (= x52 x74)))) (and (and (or (or (= x87 x61) (or (= x52 x61) (or (= x61 x49) (= x50 x61)))) (= x1 x61)) (and (or (= x1 x105) (or (= x87 x105) (or (= x52 x105) (or (= x105 x50) (= x105 x49))))) (or (= x55 x1) (or (= x55 x87) (or (= x55 x52) (or (= x55 x50) (= x49 x55))))))) (or (or (= x87 x27) (or (= x52 x27) (or (= x49 x27) (= x50 x27)))) (= x27 x1))))) (and (or (or (or (= x52 x123) (or (= x50 x123) (= x123 x49))) (= x123 x87)) (= x1 x123)) (and (or (= x129 x1) (or (= x87 x129) (or (= x129 x52) (or (= x49 x129) (= x50 x129))))) (and (or (or (= x87 x113) (or (or (= x113 x49) (= x50 x113)) (= x113 x52))) (= x113 x1)) (and (or (or (or (or (= x90 x49) (= x90 x50)) (= x52 x90)) (= x90 x87)) (= x1 x90)) (or (= x1 x118) (or (or (= x118 x52) (or (= x49 x118) (= x118 x50))) (= x87 x118)))))))) (and (and (and (and (or (or (= x87 x159) (or (= x52 x159) (or (= x159 x50) (= x49 x159)))) (= x159 x1)) (or (or (= x87 x133) (or (= x133 x52) (or (= x133 x50) (= x133 x49)))) (= x1 x133))) (or (= x126 x1) (or (= x126 x87) (or (or (= x126 x49) (= x50 x126)) (= x52 x126))))) (or (= x107 x1) (or (or (or (= x107 x49) (= x107 x50)) (= x52 x107)) (= x107 x87)))) (or (= x53 x1) (or (or (= x52 x53) (or (= x53 x50) (= x49 x53))) (= x87 x53))))) (and (and (and (or (or (or (= x52 x85) (or (= x49 x85) (= x50 x85))) (= x87 x85)) (= x1 x85)) (and (or (or (= x87 x80) (or (= x80 x52) (or (= x80 x50) (= x80 x49)))) (= x1 x80)) (or (or (= x87 x127) (or (or (= x127 x50) (= x49 x127)) (= x52 x127))) (= x1 x127)))) (or (= x36 x1) (or (= x87 x36) (or (= x36 x52) (or (= x49 x36) (= x50 x36)))))) (or (= x15 x1) (or (or (or (= x49 x15) (= x15 x50)) (= x15 x52)) (= x87 x15)))))))
(assert (or (and (and (not (= (x60 x87 (x60 x1 x87)) x87)) (and (and (not (= x50 (x60 x50 (x60 x1 x50)))) (not (= (x60 x49 (x60 x1 x49)) x49))) (not (= (x60 x52 (x60 x1 x52)) x52)))) (not (= (x60 x1 (x60 x1 x1)) x1))) (or (or (or (and (and (not (= x87 (x60 x87 (x60 x49 x87)))) (and (not (= (x60 x52 (x60 x49 x52)) x52)) (and (not (= x50 (x60 x50 (x60 x49 x50)))) (not (= x49 (x60 x49 (x60 x49 x49))))))) (not (= (x60 x1 (x60 x49 x1)) x1))) (and (not (= (x60 x1 (x60 x50 x1)) x1)) (and (and (not (= (x60 x52 (x60 x50 x52)) x52)) (and (not (= (x60 x49 (x60 x50 x49)) x49)) (not (= x50 (x60 x50 (x60 x50 x50)))))) (not (= (x60 x87 (x60 x50 x87)) x87))))) (and (and (and (and (not (= (x60 x49 (x60 x52 x49)) x49)) (not (= x50 (x60 x50 (x60 x52 x50))))) (not (= (x60 x52 (x60 x52 x52)) x52))) (not (= x87 (x60 x87 (x60 x52 x87))))) (not (= x1 (x60 x1 (x60 x52 x1)))))) (and (and (not (= (x60 x87 (x60 x87 x87)) x87)) (and (not (= (x60 x52 (x60 x87 x52)) x52)) (and (not (= x50 (x60 x50 (x60 x87 x50)))) (not (= (x60 x49 (x60 x87 x49)) x49))))) (not (= x1 (x60 x1 (x60 x87 x1))))))))
(assert (or (and (and (and (not (= (x60 (x60 x52 x1) x1) x52)) (and (not (= x50 (x60 (x60 x50 x1) x1))) (not (= x49 (x60 (x60 x49 x1) x1))))) (not (= (x60 (x60 x87 x1) x1) x87))) (not (= (x60 (x60 x1 x1) x1) x1))) (or (or (or (and (not (= x1 (x60 (x60 x1 x50) x50))) (and (and (and (not (= x50 (x60 (x60 x50 x50) x50))) (not (= (x60 (x60 x49 x50) x50) x49))) (not (= (x60 (x60 x52 x50) x50) x52))) (not (= (x60 (x60 x87 x50) x50) x87)))) (and (not (= x1 (x60 (x60 x1 x49) x49))) (and (not (= x87 (x60 (x60 x87 x49) x49))) (and (and (not (= (x60 (x60 x50 x49) x49) x50)) (not (= x49 (x60 (x60 x49 x49) x49)))) (not (= x52 (x60 (x60 x52 x49) x49))))))) (and (not (= (x60 (x60 x1 x52) x52) x1)) (and (not (= x87 (x60 (x60 x87 x52) x52))) (and (not (= x52 (x60 (x60 x52 x52) x52))) (and (not (= x50 (x60 (x60 x50 x52) x52))) (not (= x49 (x60 (x60 x49 x52) x52)))))))) (and (and (not (= x87 (x60 (x60 x87 x87) x87))) (and (and (not (= x49 (x60 (x60 x49 x87) x87))) (not (= (x60 (x60 x50 x87) x87) x50))) (not (= x52 (x60 (x60 x52 x87) x87))))) (not (= (x60 (x60 x1 x87) x87) x1))))))
(assert (and (= (x60 x50 x1) x87) (and (and (= (x60 x1 x1) x50) (= (x60 x1 x87) x49)) (= (x60 x87 x50) x52))))
(assert (not (and (and (= (x60 x1 x87) x49) (and (and (and (= x1 (x60 x1 x50)) (and (= x49 (x60 x87 x1)) (and (= (x60 x87 x87) x1) (and (and (and (= (x60 x87 x50) x52) (and (= x52 (x60 x52 x1)) (and (and (and (and (= (x60 x52 x50) x50) (and (and (= (x60 x49 x87) x50) (and (and (and (= x87 (x60 x49 x50)) (and (= x87 (x60 x50 x1)) (and (= (x60 x50 x87) x52) (and (= x1 (x60 x50 x52)) (and (= (x60 x50 x50) x49) (= x50 (x60 x50 x49))))))) (= x49 (x60 x49 x49))) (= x52 (x60 x49 x52)))) (= x1 (x60 x49 x1)))) (= (x60 x52 x49) x1)) (= x49 (x60 x52 x52))) (= (x60 x52 x87) x87)))) (= (x60 x87 x49) x87)) (= x50 (x60 x87 x52)))))) (= (x60 x1 x49) x52)) (= x87 (x60 x1 x52)))) (= x50 (x60 x1 x1)))))
(assert (or (and (not (= (x60 (x60 x1 x1) x1) x1)) (and (and (and (not (= x1 (x60 (x60 x49 x1) x49))) (not (= x1 (x60 (x60 x50 x1) x50)))) (not (= (x60 (x60 x52 x1) x52) x1))) (not (= (x60 (x60 x87 x1) x87) x1)))) (or (or (or (and (and (and (and (not (= (x60 (x60 x50 x49) x50) x49)) (not (= x49 (x60 (x60 x49 x49) x49)))) (not (= (x60 (x60 x52 x49) x52) x49))) (not (= x49 (x60 (x60 x87 x49) x87)))) (not (= (x60 (x60 x1 x49) x1) x49))) (and (and (and (not (= x50 (x60 (x60 x52 x50) x52))) (and (not (= (x60 (x60 x50 x50) x50) x50)) (not (= x50 (x60 (x60 x49 x50) x49))))) (not (= x50 (x60 (x60 x87 x50) x87)))) (not (= x50 (x60 (x60 x1 x50) x1))))) (and (and (and (and (not (= (x60 (x60 x49 x52) x49) x52)) (not (= (x60 (x60 x50 x52) x50) x52))) (not (= x52 (x60 (x60 x52 x52) x52)))) (not (= (x60 (x60 x87 x52) x87) x52))) (not (= x52 (x60 (x60 x1 x52) x1))))) (and (not (= x87 (x60 (x60 x1 x87) x1))) (and (not (= (x60 (x60 x87 x87) x87) x87)) (and (and (not (= x87 (x60 (x60 x50 x87) x50))) (not (= x87 (x60 (x60 x49 x87) x49)))) (not (= x87 (x60 (x60 x52 x87) x52)))))))))
(assert (let ((x113 (x60 x52 x52)) (x36 (x60 x87 x1)) (x132 (x60 x1 x50)) (x129 (x60 x87 x52)) (x85 (x60 x52 x1)) (x27 (x60 x87 x49)) (x159 (x60 x49 x87)) (x119 (x60 x52 x50)) (x118 (x60 x50 x52)) (x90 (x60 x49 x52)) (x133 (x60 x50 x87)) (x127 (x60 x49 x1)) (x55 (x60 x50 x49)) (x107 (x60 x87 x87)) (x123 (x60 x1 x52)) (x126 (x60 x52 x87)) (x61 (x60 x52 x49)) (x95 (x60 x87 x50)) (x46 (x60 x49 x50)) (x80 (x60 x50 x1)) (x74 (x60 x1 x49)) (x105 (x60 x49 x49)) (x148 (x60 x50 x50)) (x53 (x60 x1 x87)) (x15 (x60 x1 x1))) (or (and (and (not (= (x60 x36 x36) x87)) (and (and (not (= x49 (x60 x127 x127))) (not (= x50 (x60 x80 x80)))) (not (= (x60 x85 x85) x52)))) (not (= x1 (x60 x15 x15)))) (or (and (not (= x1 (x60 x53 x53))) (and (not (= (x60 x107 x107) x87)) (and (and (not (= x50 (x60 x133 x133))) (not (= x49 (x60 x159 x159)))) (not (= (x60 x126 x126) x52))))) (or (and (and (not (= x87 (x60 x129 x129))) (and (and (not (= (x60 x118 x118) x50)) (not (= x49 (x60 x90 x90)))) (not (= (x60 x113 x113) x52)))) (not (= x1 (x60 x123 x123)))) (or (and (and (and (and (not (= (x60 x46 x46) x49)) (not (= (x60 x148 x148) x50))) (not (= x52 (x60 x119 x119)))) (not (= (x60 x95 x95) x87))) (not (= x1 (x60 x132 x132)))) (and (not (= (x60 x74 x74) x1)) (and (and (not (= (x60 x61 x61) x52)) (and (not (= x50 (x60 x55 x55))) (not (= x49 (x60 x105 x105))))) (not (= (x60 x27 x27) x87))))))))))
(assert (let ((x80 (x60 x1 x50)) (x113 (x60 x52 x52)) (x61 (x60 x49 x52)) (x129 (x60 x52 x87)) (x107 (x60 x87 x87)) (x148 (x60 x50 x50)) (x159 (x60 x87 x49)) (x90 (x60 x52 x49)) (x36 (x60 x1 x87)) (x118 (x60 x52 x50)) (x123 (x60 x52 x1)) (x133 (x60 x87 x50)) (x127 (x60 x1 x49)) (x15 (x60 x1 x1)) (x126 (x60 x87 x52)) (x46 (x60 x50 x49)) (x132 (x60 x50 x1)) (x27 (x60 x49 x87)) (x105 (x60 x49 x49)) (x53 (x60 x87 x1)) (x55 (x60 x49 x50)) (x85 (x60 x1 x52)) (x119 (x60 x50 x52)) (x74 (x60 x49 x1)) (x95 (x60 x50 x87))) (or (and (not (= (x60 x15 x15) x1)) (and (and (and (not (= x50 (x60 x80 x80))) (not (= (x60 x127 x127) x49))) (not (= x52 (x60 x85 x85)))) (not (= (x60 x36 x36) x87)))) (or (or (or (and (not (= x1 (x60 x132 x132))) (and (not (= x87 (x60 x95 x95))) (and (not (= (x60 x119 x119) x52)) (and (not (= x49 (x60 x46 x46))) (not (= x50 (x60 x148 x148))))))) (and (and (and (and (not (= x49 (x60 x105 x105))) (not (= (x60 x55 x55) x50))) (not (= x52 (x60 x61 x61)))) (not (= x87 (x60 x27 x27)))) (not (= x1 (x60 x74 x74))))) (and (and (not (= (x60 x129 x129) x87)) (and (and (not (= (x60 x118 x118) x50)) (not (= x49 (x60 x90 x90)))) (not (= x52 (x60 x113 x113))))) (not (= (x60 x123 x123) x1)))) (and (not (= (x60 x53 x53) x1)) (and (not (= (x60 x107 x107) x87)) (and (not (= x52 (x60 x126 x126))) (and (not (= x49 (x60 x159 x159))) (not (= (x60 x133 x133) x50))))))))))
(assert (and (not (= x1 x87)) (and (and (not (= x87 x52)) (and (and (and (not (= x49 x52)) (and (not (= x1 x50)) (and (and (not (= x50 x49)) (not (= x50 x52))) (not (= x87 x50))))) (not (= x49 x87))) (not (= x1 x49)))) (not (= x1 x52)))))
(assert (or (= (x60 x1 x1) x1) (or (= (x60 x87 x87) x87) (or (= (x60 x52 x52) x52) (or (= x49 (x60 x49 x49)) (= (x60 x50 x50) x50))))))
(assert (let ((x62 (x60 x49 x49)) (x102 (x60 x87 x49)) (x21 (x60 x87 x52)) (x43 (x60 x50 x49)) (x78 (x60 x50 x50)) (x29 (x60 x1 x87)) (x143 (x60 x52 x50)) (x37 (x60 x49 x87)) (x88 (x60 x52 x87)) (x100 (x60 x1 x50)) (x81 (x60 x52 x1)) (x135 (x60 x49 x1)) (x146 (x60 x1 x52)) (x116 (x60 x52 x52)) (x14 (x60 x1 x1)) (x149 (x60 x87 x1)) (x26 (x60 x50 x52)) (x137 (x60 x49 x52)) (x69 (x60 x87 x87)) (x94 (x60 x52 x49)) (x144 (x60 x50 x87)) (x92 (x60 x49 x50)) (x2 (x60 x1 x49)) (x147 (x60 x50 x1)) (x104 (x60 x87 x50))) (let ((x132 (not (= x50 x143))) (x113 (not (= x50 x37))) (x39 (not (= x100 x1))) (x151 (not (= x49 x137))) (x125 (not (= x92 x49))) (x25 (not (= x52 x146))) (x46 (not (= x92 x50))) (x85 (not (= x50 x29))) (x129 (not (= x21 x50))) (x66 (not (= x144 x87))) (x154 (not (= x62 x49))) (x112 (not (= x52 x14))) (x128 (not (= x146 x87))) (x120 (not (= x49 x147))) (x80 (not (= x146 x50))) (x152 (not (= x88 x49))) (x131 (not (= x49 x104))) (x127 (not (= x81 x50))) (x111 (not (= x137 x52))) (x71 (not (= x49 x78))) (x138 (not (= x52 x147))) (x41 (not (= x52 x21))) (x51 (not (= x26 x87))) (x139 (not (= x62 x87))) (x73 (not (= x29 x1))) (x90 (not (= x102 x50))) (x136 (not (= x49 x69))) (x114 (not (= x143 x52))) (x83 (not (= x116 x52))) (x67 (not (= x21 x87))) (x34 (not (= x78 x1))) (x61 (not (= x137 x50))) (x148 (not (= x78 x50))) (x159 (not (= x50 x100))) (x13 (not (= x102 x52))) (x99 (not (= x52 x135))) (x9 (not (= x52 x81))) (x48 (not (= x49 x21))) (x108 (not (= x78 x52))) (x76 (not (= x62 x1))) (x11 (not (= x92 x52))) (x115 (not (= x78 x87))) (x118 (not (= x50 x144))) (x122 (not (= x144 x52))) (x96 (not (= x87 x2))) (x28 (not (= x104 x1))) (x27 (not (= x116 x50))) (x32 (not (= x87 x135))) (x57 (not (= x2 x49))) (x134 (not (= x14 x49))) (x10 (not (= x52 x43))) (x77 (not (= x149 x87))) (x117 (not (= x147 x1))) (x72 (not (= x137 x87))) (x15 (not (= x50 x14))) (x130 (not (= x149 x52))) (x23 (not (= x26 x1))) (x150 (not (= x52 x69))) (x30 (not (= x102 x49))) (x38 (not (= x52 x94))) (x158 (not (= x49 x100))) (x103 (not (= x49 x37))) (x31 (not (= x87 x94))) (x64 (not (= x1 x92))) (x47 (not (= x52 x100))) (x17 (not (= x94 x49))) (x107 (not (= x50 x2))) (x54 (not (= x144 x1))) (x133 (not (= x50 x69))) (x70 (not (= x52 x62))) (x82 (not (= x1 x135))) (x75 (not (= x87 x116))) (x56 (not (= x1 x137))) (x79 (not (= x94 x1))) (x124 (not (= x102 x1))) (x145 (not (= x1 x14))) (x8 (not (= x1 x43))) (x101 (not (= x87 x14))) (x55 (not (= x26 x50))) (x19 (not (= x87 x29))) (x4 (not (= x104 x87))) (x86 (not (= x87 x88))) (x97 (not (= x2 x1))) (x106 (not (= x29 x52))) (x141 (not (= x1 x143))) (x12 (not (= x100 x87))) (x58 (not (= x49 x81))) (x35 (not (= x37 x87))) (x42 (not (= x81 x1))) (x155 (not (= x49 x116))) (x89 (not (= x87 x43))) (x93 (not (= x49 x135))) (x126 (not (= x50 x147))) (x59 (not (= x26 x52))) (x44 (not (= x52 x2))) (x65 (not (= x26 x49))) (x109 (not (= x144 x49))) (x6 (not (= x69 x87))) (x3 (not (= x1 x146))) (x123 (not (= x88 x50))) (x5 (not (= x29 x49))) (x68 (not (= x52 x88))) (x157 (not (= x143 x49))) (x121 (not (= x52 x104))) (x84 (not (= x21 x1))) (x24 (not (= x147 x87))) (x74 (not (= x50 x104))) (x36 (not (= x50 x149))) (x91 (not (= x87 x102))) (x110 (not (= x1 x116))) (x40 (not (= x49 x146))) (x7 (not (= x37 x1))) (x53 (not (= x50 x135))) (x63 (not (= x49 x43))) (x20 (not (= x37 x52))) (x119 (not (= x50 x43))) (x16 (not (= x81 x87))) (x98 (not (= x49 x149))) (x105 (not (= x50 x94))) (x95 (not (= x50 x62))) (x140 (not (= x1 x69))) (x18 (not (= x149 x1))) (x142 (not (= x87 x143))) (x156 (not (= x88 x1))) (x33 (not (= x87 x92)))) (or (and (and (and (or x73 x18) (and (or x3 x42) (and (or x39 x117) (or x82 x97)))) (or x145 x145)) (and (and (and (and (or x156 x84) (and (and (or x141 x23) (or x79 x56)) (or x110 x110))) (or x3 x42)) (and (and (or x39 x117) (and (and (and (or x34 x34) (or x8 x64)) (or x141 x23)) (or x28 x54))) (and (or x82 x97) (and (or x7 x124) (and (and (or x64 x8) (or x76 x76)) (or x56 x79)))))) (and (or x73 x18) (and (or x140 x140) (and (and (or x7 x124) (or x54 x28)) (or x84 x156)))))) (or (or (or (and (and (and (or x36 x85) (and (and (or x129 x123) (and (or x90 x113) (or x118 x74))) (or x133 x133))) (and (and (and (or x126 x159) (and (and (and (or x148 x148) (or x46 x119)) (or x132 x55)) (or x74 x118))) (and (and (and (or x105 x61) (and (or x95 x95) (or x119 x46))) (or x113 x90)) (or x107 x53))) (and (and (or x129 x123) (and (and (or x105 x61) (or x132 x55)) (or x27 x27))) (or x127 x80)))) (and (or x15 x15) (and (and (or x127 x80) (and (or x159 x126) (or x107 x53))) (or x36 x85)))) (and (and (and (and (and (and (or x131 x109) (and (and (or x71 x71) (or x125 x63)) (or x65 x157))) (or x120 x158)) (and (and (and (and (or x154 x154) (or x63 x125)) (or x17 x151)) (or x103 x30)) (or x57 x93))) (and (or x40 x58) (and (and (or x155 x155) (and (or x157 x65) (or x17 x151))) (or x48 x152)))) (and (or x98 x5) (and (and (or x48 x152) (and (or x103 x30) (or x131 x109))) (or x136 x136)))) (and (or x134 x134) (and (and (or x40 x58) (and (or x57 x93) (or x158 x120))) (or x98 x5))))) (and (and (and (or x106 x130) (and (or x9 x25) (and (or x138 x47) (or x44 x99)))) (or x112 x112)) (and (and (and (or x9 x25) (and (and (and (or x111 x38) (or x114 x59)) (or x83 x83)) (or x68 x41))) (and (and (or x47 x138) (and (and (or x59 x114) (and (or x11 x10) (or x108 x108))) (or x122 x121))) (and (or x99 x44) (and (or x20 x13) (and (and (or x70 x70) (or x11 x10)) (or x111 x38)))))) (and (or x106 x130) (and (and (and (or x122 x121) (or x20 x13)) (or x41 x68)) (or x150 x150)))))) (and (and (and (or x19 x77) (and (or x6 x6) (and (or x86 x67) (and (or x35 x91) (or x66 x4))))) (and (and (and (and (or x91 x35) (and (and (or x33 x89) (or x139 x139)) (or x72 x31))) (or x32 x96)) (and (and (or x4 x66) (and (and (or x89 x33) (or x115 x115)) (or x142 x51))) (or x12 x24))) (and (or x128 x16) (and (or x67 x86) (and (or x75 x75) (and (or x51 x142) (or x31 x72))))))) (and (and (and (or x16 x128) (and (or x32 x96) (or x24 x12))) (or x77 x19)) (or x101 x101))))))))
(assert (let ((x95 (x60 x52 x52)) (x119 (x60 x49 x49)) (x132 (x60 x87 x87)) (x46 (x60 x50 x50)) (x55 (x60 x1 x1))) (let ((x61 (= x119 x49)) (x123 (= x55 x1)) (x113 (= x95 x52)) (x129 (= x87 x132)) (x148 (= x50 x46))) (let ((x105 (or (or (or (= x95 x50) (or x148 (= x50 x119))) (= x132 x50)) (= x55 x50))) (x118 (or (= x55 x87) (or (or (= x95 x87) (or (= x87 x46) (= x119 x87))) x129))) (x90 (or (or (or (= x95 x1) (or (= x46 x1) (= x119 x1))) (= x1 x132)) x123)) (x27 (or (or (= x49 x132) (or (or x61 (= x49 x46)) (= x95 x49))) (= x55 x49))) (x74 (or (or (= x132 x52) (or (or (= x119 x52) (= x52 x46)) x113)) (= x55 x52)))) (and (and (or (not x123) x90) (and (and (or (not (= x1 (x60 x1 x52))) x74) (and (or (not (= (x60 x1 x50) x1)) x105) (or x27 (not (= x1 (x60 x1 x49)))))) (or x118 (not (= (x60 x1 x87) x1))))) (and (and (and (and (or (not (= (x60 x52 x87) x52)) x118) (and (or (not x113) x74) (and (or x27 (not (= x52 (x60 x52 x49)))) (or x105 (not (= (x60 x52 x50) x52)))))) (or x90 (not (= (x60 x52 x1) x52)))) (and (and (and (and (or (not (= x50 (x60 x50 x52))) x74) (and (or x27 (not (= (x60 x50 x49) x50))) (or (not x148) x105))) (or (not (= x50 (x60 x50 x87))) x118)) (or (not (= (x60 x50 x1) x50)) x90)) (and (and (and (and (or (not x61) x27) (or (not (= (x60 x49 x50) x49)) x105)) (or x74 (not (= x49 (x60 x49 x52))))) (or (not (= (x60 x49 x87) x49)) x118)) (or x90 (not (= (x60 x49 x1) x49)))))) (and (and (or (not x129) x118) (and (or (not (= (x60 x87 x52) x87)) x74) (and (or x105 (not (= x87 (x60 x87 x50)))) (or x27 (not (= (x60 x87 x49) x87)))))) (or (not (= x87 (x60 x87 x1))) x90))))))))
(assert (or (and (not (= x1 (x60 x1 (x60 x1 x1)))) (and (not (= (x60 x87 (x60 x1 x87)) x1)) (and (and (not (= (x60 x49 (x60 x1 x49)) x1)) (not (= (x60 x50 (x60 x1 x50)) x1))) (not (= x1 (x60 x52 (x60 x1 x52))))))) (or (and (and (and (and (not (= x87 (x60 x49 (x60 x87 x49)))) (not (= x87 (x60 x50 (x60 x87 x50))))) (not (= (x60 x52 (x60 x87 x52)) x87))) (not (= (x60 x87 (x60 x87 x87)) x87))) (not (= x87 (x60 x1 (x60 x87 x1))))) (or (and (not (= (x60 x1 (x60 x52 x1)) x52)) (and (and (not (= x52 (x60 x52 (x60 x52 x52)))) (and (not (= (x60 x50 (x60 x52 x50)) x52)) (not (= (x60 x49 (x60 x52 x49)) x52)))) (not (= (x60 x87 (x60 x52 x87)) x52)))) (or (and (and (and (and (not (= x49 (x60 x49 (x60 x49 x49)))) (not (= (x60 x50 (x60 x49 x50)) x49))) (not (= x49 (x60 x52 (x60 x49 x52))))) (not (= (x60 x87 (x60 x49 x87)) x49))) (not (= x49 (x60 x1 (x60 x49 x1))))) (and (not (= x50 (x60 x1 (x60 x50 x1)))) (and (and (and (not (= (x60 x50 (x60 x50 x50)) x50)) (not (= x50 (x60 x49 (x60 x50 x49))))) (not (= x50 (x60 x52 (x60 x50 x52))))) (not (= x50 (x60 x87 (x60 x50 x87)))))))))))
(assert (let ((x127 (x60 x52 x1)) (x90 (x60 x87 x49)) (x143 (x60 x50 x87)) (x95 (x60 x49 x49)) (x129 (x60 x87 x52)) (x74 (x60 x87 x50)) (x132 (x60 x52 x50)) (x61 (x60 x49 x52)) (x107 (x60 x1 x49)) (x123 (x60 x52 x87)) (x80 (x60 x1 x52)) (x159 (x60 x1 x50)) (x27 (x60 x52 x52)) (x104 (x60 x50 x1)) (x133 (x60 x87 x87)) (x85 (x60 x1 x87)) (x92 (x60 x50 x52)) (x15 (x60 x1 x1)) (x78 (x60 x50 x50)) (x105 (x60 x52 x49)) (x46 (x60 x49 x50)) (x53 (x60 x49 x1)) (x113 (x60 x49 x87)) (x36 (x60 x87 x1)) (x71 (x60 x50 x49))) (let ((x102 (not (= x87 x129))) (x118 (not (= x50 x143))) (x126 (not (= x50 x104))) (x147 (not (= x1 x159))) (x26 (not (= x132 x52))) (x135 (not (= x1 x80))) (x148 (not (= x50 x78))) (x116 (not (= x1 x15))) (x62 (not (= x113 x49))) (x137 (not (= x53 x49))) (x154 (not (= x90 x87))) (x94 (not (= x1 x107))) (x125 (not (= x49 x61))) (x157 (not (= x133 x87))) (x151 (not (= x36 x87))) (x55 (not (= x50 x92))) (x2 (not (= x52 x123))) (x43 (not (= x49 x46))) (x63 (not (= x52 x105))) (x37 (not (= x27 x52))) (x144 (not (= x87 x74))) (x119 (not (= x71 x50))) (x65 (not (= x85 x1))) (x17 (not (= x127 x52))) (x100 (not (= x49 x95)))) (or (or (or (and (and (or x116 (not (= x15 x52))) (and (or x151 (not (= x52 x85))) (and (or x17 (not (= x52 x80))) (and (or x126 (not (= x159 x52))) (or x137 (not (= x107 x52))))))) (and (and (or (not (= x36 x52)) x65) (and (and (and (or (not (= x52 x74)) x118) (or (not (= x90 x52)) x62)) (or x2 (not (= x52 x129)))) (or x157 (not (= x52 x133))))) (and (and (or x17 x135) (and (or x102 x2) (and (and (or x125 x63) (or x55 x26)) (or x37 x37)))) (and (and (or (not (= x53 x52)) x94) (and (and (and (or (not (= x46 x52)) x119) (or x100 (not (= x52 x95)))) (or (not (= x52 x61)) x63)) (or (not (= x113 x52)) x154))) (and (or x147 (not (= x104 x52))) (and (or x144 (not (= x52 x143))) (and (and (or x43 (not (= x52 x71))) (or (not (= x52 x78)) x148)) (or x26 (not (= x52 x92)))))))))) (or (and (and (and (and (and (or x2 (not (= x129 x50))) (and (or x118 (not (= x50 x74))) (or (not (= x50 x90)) x62))) (or (not (= x50 x133)) x157)) (or x65 (not (= x36 x50)))) (and (and (and (and (and (and (or x148 x148) (or x119 x43)) (or x55 x26)) (or x144 x118)) (or x147 x126)) (and (and (and (and (or (not (= x50 x46)) x119) (or (not (= x95 x50)) x100)) (or x63 (not (= x61 x50)))) (or (not (= x50 x113)) x154)) (or x94 (not (= x53 x50))))) (and (and (and (or (not (= x50 x27)) x37) (and (or (not (= x50 x132)) x55) (or (not (= x50 x105)) x125))) (or (not (= x50 x123)) x102)) (or x135 (not (= x127 x50)))))) (and (and (and (or x17 (not (= x50 x80))) (and (or (not (= x159 x50)) x126) (or (not (= x107 x50)) x137))) (or x151 (not (= x85 x50)))) (or (not (= x15 x50)) x116))) (and (and (and (or x151 (not (= x49 x85))) (and (or (not (= x80 x49)) x17) (and (or x137 (not (= x107 x49))) (or (not (= x159 x49)) x126)))) (or (not (= x15 x49)) x116)) (and (and (and (and (and (or x62 (not (= x90 x49))) (or x118 (not (= x74 x49)))) (or (not (= x49 x129)) x2)) (or x157 (not (= x49 x133)))) (or (not (= x36 x49)) x65)) (and (and (or x135 (not (= x49 x127))) (and (and (or (not (= x49 x27)) x37) (and (or (not (= x49 x105)) x125) (or x55 (not (= x49 x132))))) (or x102 (not (= x123 x49))))) (and (and (or x94 x137) (and (and (and (or x43 x119) (or x100 x100)) (or x63 x125)) (or x154 x62))) (and (and (or (not (= x49 x143)) x144) (and (and (or (not (= x78 x49)) x148) (or x43 (not (= x49 x71)))) (or x26 (not (= x92 x49))))) (or (not (= x49 x104)) x147)))))))) (and (and (and (and (or x157 x157) (and (or x102 x2) (and (or x154 x62) (or x144 x118)))) (or x151 x65)) (and (and (and (and (and (or (not (= x87 x105)) x125) (or x55 (not (= x87 x132)))) (or (not (= x27 x87)) x37)) (or x102 (not (= x123 x87)))) (or (not (= x127 x87)) x135)) (and (and (and (and (and (or (not (= x78 x87)) x148) (or x43 (not (= x71 x87)))) (or x26 (not (= x92 x87)))) (or x144 (not (= x87 x143)))) (or x147 (not (= x87 x104)))) (and (and (and (or x63 (not (= x61 x87))) (and (or x100 (not (= x95 x87))) (or x119 (not (= x46 x87))))) (or x154 (not (= x113 x87)))) (or (not (= x87 x53)) x94))))) (and (and (or x151 (not (= x85 x87))) (and (or x17 (not (= x87 x80))) (and (or (not (= x159 x87)) x126) (or x137 (not (= x87 x107)))))) (or x116 (not (= x87 x15)))))) (and (and (and (and (and (and (and (or (not (= x1 x92)) x26) (and (or (not (= x71 x1)) x43) (or (not (= x1 x78)) x148))) (or x144 (not (= x143 x1)))) (or (not (= x1 x104)) x147)) (and (and (and (and (or (not (= x1 x95)) x100) (or (not (= x46 x1)) x119)) (or (not (= x1 x61)) x63)) (or (not (= x113 x1)) x154)) (or (not (= x1 x53)) x94))) (and (and (or (not (= x123 x1)) x102) (and (and (or x55 (not (= x1 x132))) (or x125 (not (= x105 x1)))) (or x37 (not (= x27 x1))))) (or (not (= x1 x127)) x135))) (and (and (or x157 (not (= x133 x1))) (and (or (not (= x1 x129)) x2) (and (or x118 (not (= x1 x74))) (or x62 (not (= x1 x90)))))) (or (not (= x1 x36)) x65))) (and (or x116 x116) (and (or x65 x151) (and (or x17 x135) (and (or x137 x94) (or x147 x126))))))))))
(assert (let ((x95 (x60 x87 x87)) (x132 (x60 x1 x1)) (x119 (x60 x52 x52)) (x46 (x60 x49 x49)) (x148 (x60 x50 x50))) (or (and (not (= x1 x132)) (and (not (= x95 x1)) (and (and (not (= x148 x1)) (not (= x1 x46))) (not (= x1 x119))))) (or (or (and (not (= x52 x132)) (and (and (and (not (= x52 x148)) (not (= x46 x52))) (not (= x52 x119))) (not (= x52 x95)))) (or (and (not (= x132 x49)) (and (and (not (= x119 x49)) (and (not (= x46 x49)) (not (= x49 x148)))) (not (= x95 x49)))) (and (and (and (not (= x50 x119)) (and (not (= x50 x148)) (not (= x46 x50)))) (not (= x95 x50))) (not (= x50 x132))))) (and (not (= x87 x132)) (and (not (= x95 x87)) (and (not (= x87 x119)) (and (not (= x148 x87)) (not (= x87 x46))))))))))
(assert (let ((x85 (x60 x52 x1)) (x15 (x60 x1 x1)) (x46 (x60 x49 x50)) (x119 (x60 x52 x50)) (x133 (x60 x50 x87)) (x36 (x60 x87 x1)) (x80 (x60 x50 x1)) (x95 (x60 x87 x50)) (x127 (x60 x49 x1)) (x107 (x60 x87 x87)) (x53 (x60 x1 x87)) (x148 (x60 x50 x50)) (x118 (x60 x50 x52)) (x129 (x60 x87 x52)) (x55 (x60 x50 x49)) (x123 (x60 x1 x52)) (x126 (x60 x52 x87)) (x159 (x60 x49 x87)) (x132 (x60 x1 x50)) (x113 (x60 x52 x52)) (x105 (x60 x49 x49)) (x90 (x60 x49 x52)) (x74 (x60 x1 x49)) (x27 (x60 x87 x49)) (x61 (x60 x52 x49))) (and (and (and (not (= x53 x15)) (and (not (= x123 x15)) (and (not (= x53 x123)) (and (and (and (not (= x74 x123)) (and (not (= x15 x132)) (and (and (not (= x123 x132)) (not (= x74 x132))) (not (= x132 x53))))) (not (= x53 x74))) (not (= x74 x15)))))) (and (and (and (and (not (= x107 x129)) (and (not (= x27 x36)) (and (and (and (and (not (= x107 x95)) (and (not (= x27 x95)) (not (= x95 x129)))) (not (= x95 x36))) (not (= x27 x129))) (not (= x27 x107))))) (not (= x129 x36))) (not (= x107 x36))) (and (and (and (and (and (not (= x61 x85)) (and (not (= x126 x61)) (and (not (= x61 x113)) (and (and (and (not (= x119 x61)) (not (= x113 x119))) (not (= x126 x119))) (not (= x119 x85)))))) (not (= x113 x126))) (not (= x85 x113))) (not (= x126 x85))) (and (and (and (and (and (and (and (and (not (= x46 x127)) (and (and (not (= x105 x46)) (not (= x90 x46))) (not (= x46 x159)))) (not (= x105 x90))) (not (= x105 x159))) (not (= x127 x105))) (not (= x90 x159))) (not (= x90 x127))) (not (= x127 x159))) (and (not (= x80 x133)) (and (and (and (not (= x55 x80)) (and (and (not (= x55 x118)) (and (not (= x148 x80)) (and (not (= x148 x133)) (and (not (= x118 x148)) (not (= x148 x55)))))) (not (= x55 x133)))) (not (= x118 x133))) (not (= x80 x118)))))))) (and (and (and (and (not (= x123 x129)) (and (and (not (= x113 x129)) (and (not (= x90 x123)) (and (not (= x90 x129)) (and (not (= x90 x113)) (and (not (= x118 x123)) (and (and (not (= x118 x113)) (not (= x90 x118))) (not (= x118 x129)))))))) (not (= x123 x113)))) (and (and (not (= x132 x95)) (and (not (= x119 x132)) (and (not (= x95 x119)) (and (not (= x46 x132)) (and (and (not (= x46 x119)) (and (and (and (not (= x119 x148)) (not (= x148 x46))) (not (= x148 x95))) (not (= x148 x132)))) (not (= x95 x46))))))) (and (not (= x27 x74)) (and (and (not (= x61 x27)) (and (not (= x74 x105)) (and (and (and (not (= x55 x74)) (and (and (not (= x61 x55)) (not (= x55 x105))) (not (= x27 x55)))) (not (= x61 x105))) (not (= x27 x105))))) (not (= x61 x74)))))) (and (and (and (and (and (not (= x159 x107)) (and (and (not (= x53 x133)) (and (not (= x133 x107)) (and (not (= x159 x133)) (not (= x126 x133))))) (not (= x126 x159)))) (not (= x159 x53))) (not (= x107 x126))) (not (= x53 x126))) (not (= x107 x53)))) (and (not (= x36 x15)) (and (not (= x85 x15)) (and (not (= x36 x85)) (and (not (= x15 x127)) (and (and (not (= x127 x85)) (and (not (= x15 x80)) (and (and (not (= x80 x85)) (not (= x80 x127))) (not (= x36 x80))))) (not (= x36 x127)))))))))))
(assert (let ((x119 (= x49 (x60 x49 x49))) (x27 (= x87 (x60 x87 x87))) (x74 (= x1 (x60 x1 x1))) (x148 (= (x60 x50 x50) x50)) (x61 (= (x60 x52 x52) x52))) (let ((x95 (not x119)) (x46 (not x148)) (x55 (not x27)) (x132 (not x61)) (x105 (not x74))) (or (or (or (or (and x105 (= (x60 x52 x1) x52)) (or (and x55 (= (x60 x52 x87) x52)) (or (and x132 x61) (or (and (= (x60 x52 x49) x52) x95) (and (= x52 (x60 x52 x50)) x46))))) (or (or (and (= (x60 x50 x1) x50) x105) (or (and (= (x60 x50 x87) x50) x55) (or (or (and x95 (= (x60 x50 x49) x50)) (and x148 x46)) (and (= x50 (x60 x50 x52)) x132)))) (or (or (and (= (x60 x49 x87) x49) x55) (or (or (and (= (x60 x49 x50) x49) x46) (and x119 x95)) (and x132 (= (x60 x49 x52) x49)))) (and (= x49 (x60 x49 x1)) x105)))) (or (or (and x55 x27) (or (and x132 (= (x60 x87 x52) x87)) (or (and x46 (= (x60 x87 x50) x87)) (and x95 (= (x60 x87 x49) x87))))) (and (= (x60 x87 x1) x87) x105))) (or (or (or (and (= x1 (x60 x1 x52)) x132) (or (and x95 (= x1 (x60 x1 x49))) (and x46 (= (x60 x1 x50) x1)))) (and (= (x60 x1 x87) x1) x55)) (and x105 x74))))))
(check-sat)
(exit)
